# This is a relatively complex example containing two different types of
# molecules, and a hybrid of Lennard-Jones and 3-body SW "pair" styles.

import "watmw.lt"

write_once("Data Boundary") {
  0.000000   48.000 xlo xhi
  0.000000   48.000 ylo yhi
  0.000000   48.000 zlo zhi
}

wall = new WatMW [15].move(4.0,0,0) # x-y plane
                 [15].move(0,4.0,0)

wall[*][*].move(-4,-4,-4.0)

wall2 = new WatMW [14].move(0,0,4.0) # x-z plane
                  [15].move(4.0,0,0)
wall2[*][*].move(-4,-4,0)

wall3 = new WatMW [14].move(0,0,4.0) # y-z plane
                  [14].move(0,4.0,0)
wall3[*][*].move(-4,0,0)

wall4 = new WatMW [14].move(4.0,0,0) # x-y plane
                  [14].move(0,4.0,0)

wall4[*][*].move(0,0,52.0)

wall5 = new WatMW [13].move(0,0,4.0) # x-z plane
                  [14].move(4.0,0,0)

wall5[*][*].move(0,52.0,0)

wall6 = new WatMW [13].move(0,0,4.0) # y-z plane
                  [13].move(0,4.0,0)

wall6[*][*].move(52.0,0,0)


write_once("In Init") {
  # -- Tell LAMMPS we want to use two different pair styles 
  # -- (This overrides earlier settings.)
  pair_style   hybrid  sw  lj/charmm/coul/charmm 9.0 11.0 9.0 11.0
}


write_once("In Settings") {
  # -- Now indicate which atom type(s) are simulated using the "sw" pair style 
  # -- In this case only one of the atom types is used (the mW water "atom").

  pair_coeff    * * sw system.in.sw mW NULL NULL NULL

  # -- Unfortunately LAMMPS itself does not understand molemlate syntax, so
  # -- the atoms are identified by order in the list, not by name.  (The "mW" 
  # -- refers to to an identifier in the system.in.sw file, not watmw.lt.)
  # -- This command says that the first atom type corresponds to the "mW"
  # -- atom in system.in.sw, and to ignore the remaining three atom types
  # -- (correspond to the CH2, CH3, CH4 atom types defined in trappe1998.lt.
  # --  We don't want to use the "sw" force field for interactions involving 
  # --  these atom types, so we put "NULL" there.)
  # -- Note: For this to work, you should probably run moltemplate this way:
  # --     moltemplate.sh -a "@atom:WatMW/mW 1" system.lt
  # -- This assigns the atom type named @atom:WatMW/mW to 1  (the first atom)
}



# -- Somewhere we must eventually define interactions 
# -- between atoms from different molecule types




