# LAMMPS data for OH mol

Wall {
    write("Data Atoms") {
        $atom:OH @atom:OH 0.0 0.0 0.0
    }

    write_once("Data Masses") {
        @atom:OH 15.999400
    }

    write_once("system.in.sw") {
    OH OH OH 0.000 2.3925 1.8 23.15 1.2 -0.333333333333 7.049556277 0.6022245584 4.0 0.0 0.00001
    }

    write_once("In Init") {
        units real
        pair_style sw
    }

    write_once("In Settings") {
        group OH type @atom:OH
    }
} # Wall